Problem:    wpmaxsat
Rows:       53
Columns:    44 (44 integer, 44 binary)
Non-zeros:  144
Status:     INTEGER OPTIMAL
Objective:  pesoSoft = 104 (MAXimum)

   No.   Row name        Activity     Lower bound   Upper bound
------ ------------    ------------- ------------- -------------
     1 pesoSoft                  104                             
     2 clausSat[c0]                1            -0               
     3 clausSat[c1]                1            -0               
     4 clausSat[c2]                1            -0               
     5 clausSat[c3]                1            -0               
     6 clausSat[c4]                1            -0               
     7 clausSat[c5]                1            -0               
     8 clausSat[c6]                1            -0               
     9 clausSat[c7]                1            -0               
    10 clausSat[c8]                1             1               
    11 clausSat[c9]                1             1               
    12 clausSat[c10]
                                   1            -0               
    13 clausSat[c11]
                                   1            -0               
    14 clausSat[c12]
                                   1            -0               
    15 clausSat[c13]
                                   1            -0               
    16 clausSat[c14]
                                   1            -0               
    17 clausSat[c15]
                                   1            -0               
    18 clausSat[c16]
                                   1            -0               
    19 clausSat[c17]
                                   1            -0               
    20 clausSat[c18]
                                   1            -0               
    21 clausSat[c19]
                                   1            -0               
    22 clausBin[c0]                0                          -0 
    23 clausBin[c1]                0                          -0 
    24 clausBin[c2]                0                          -0 
    25 clausBin[c3]                0                          -0 
    26 clausBin[c4]                0                          -0 
    27 clausBin[c5]                0                          -0 
    28 clausBin[c6]                0                          -0 
    29 clausBin[c7]                0                          -0 
    30 clausBin[c8]               -1                          -0 
    31 clausBin[c9]               -1                          -0 
    32 clausBin[c10]
                                   0                          -0 
    33 clausBin[c11]
                                   0                          -0 
    34 clausBin[c12]
                                   0                          -0 
    35 clausBin[c13]
                                   0                          -0 
    36 clausBin[c14]
                                   0                          -0 
    37 clausBin[c15]
                                   0                          -0 
    38 clausBin[c16]
                                   0                          -0 
    39 clausBin[c17]
                                   0                          -0 
    40 clausBin[c18]
                                   0                          -0 
    41 clausBin[c19]
                                   0                          -0 
    42 negVar[1]                   1             1             = 
    43 negVar[10]                  1             1             = 
    44 negVar[11]                  1             1             = 
    45 negVar[12]                  1             1             = 
    46 negVar[13]                  1             1             = 
    47 negVar[14]                  1             1             = 
    48 negVar[15]                  1             1             = 
    49 negVar[20]                  1             1             = 
    50 negVar[21]                  1             1             = 
    51 negVar[22]                  1             1             = 
    52 negVar[23]                  1             1             = 
    53 negVar[50]                  1             1             = 

   No. Column name       Activity     Lower bound   Upper bound
------ ------------    ------------- ------------- -------------
     1 x[1]         *              1             0             1 
     2 x[10]        *              0             0             1 
     3 x[11]        *              0             0             1 
     4 x[12]        *              0             0             1 
     5 x[13]        *              0             0             1 
     6 x[14]        *              0             0             1 
     7 x[15]        *              0             0             1 
     8 x[20]        *              0             0             1 
     9 x[21]        *              0             0             1 
    10 x[22]        *              0             0             1 
    11 x[23]        *              0             0             1 
    12 x[50]        *              0             0             1 
    13 xN[1]        *              0             0             1 
    14 xN[10]       *              1             0             1 
    15 xN[11]       *              1             0             1 
    16 xN[12]       *              1             0             1 
    17 xN[13]       *              1             0             1 
    18 xN[14]       *              1             0             1 
    19 xN[15]       *              1             0             1 
    20 xN[20]       *              1             0             1 
    21 xN[21]       *              1             0             1 
    22 xN[22]       *              1             0             1 
    23 xN[23]       *              1             0             1 
    24 xN[50]       *              1             0             1 
    25 c[c0]        *              1             0             1 
    26 c[c1]        *              1             0             1 
    27 c[c2]        *              1             0             1 
    28 c[c3]        *              1             0             1 
    29 c[c4]        *              1             0             1 
    30 c[c5]        *              1             0             1 
    31 c[c6]        *              1             0             1 
    32 c[c7]        *              1             0             1 
    33 c[c8]        *              0             0             1 
    34 c[c9]        *              0             0             1 
    35 c[c10]       *              1             0             1 
    36 c[c11]       *              1             0             1 
    37 c[c12]       *              1             0             1 
    38 c[c13]       *              1             0             1 
    39 c[c14]       *              1             0             1 
    40 c[c15]       *              1             0             1 
    41 c[c16]       *              1             0             1 
    42 c[c17]       *              1             0             1 
    43 c[c18]       *              1             0             1 
    44 c[c19]       *              1             0             1 

Integer feasibility conditions:

KKT.PE: max.abs.err = 0.00e+00 on row 0
        max.rel.err = 0.00e+00 on row 0
        High quality

KKT.PB: max.abs.err = 0.00e+00 on row 0
        max.rel.err = 0.00e+00 on row 0
        High quality

End of output
